S = 9;
start = [|0,0,0,0,78,0,0,0,18,0,0,0,0,0,0,37,0,0,0,0,0,0,0,0,0,0,17,0,0,0,0,0,5,0,0,0,0,0,0,0,61,0,0,0,72,28,0,0,0,0,0,0,0,0,0,0,44,0,0,0,0,0,0,0,0,0,70,0,0,2,0,0,0,42,0,0,0,45,81,12,0|
0,0,0,0,0,0,0,81,0,13,0,0,0,0,9,75,0,0,0,0,0,23,0,36,0,56,0,0,0,0,73,32,0,0,0,60,0,0,0,0,0,44,0,0,0,0,0,0,0,80,0,0,0,0,0,0,0,0,0,76,50,0,0,0,33,0,0,0,0,0,0,0,0,0,0,0,67,0,0,0,0|
0,0,0,60,0,0,0,73,0,61,0,0,0,0,56,0,0,0,0,48,12,0,0,0,0,0,70,0,0,0,30,0,0,0,0,0,0,0,0,0,0,0,0,47,0,0,0,0,34,32,0,0,0,0,31,0,6,0,81,62,75,0,0,0,72,37,0,0,0,0,0,9,29,0,10,0,0,0,33,0,0|
0,0,0,0,0,0,0,25,0,0,59,0,40,0,0,62,0,0,0,0,0,0,0,0,0,0,0,0,0,0,0,0,0,22,0,0,0,24,0,0,0,0,0,0,0,2,81,0,49,0,0,0,0,45,0,0,0,0,0,0,0,0,0,79,0,0,0,0,0,61,0,60,0,0,39,0,0,0,0,77,37|
0,0,0,0,0,69,0,0,0,36,60,0,0,10,0,0,0,17,0,0,0,0,0,0,0,0,0,0,0,0,41,0,0,0,0,0,0,81,0,0,0,31,9,0,59,62,0,0,0,0,0,53,0,0,0,0,72,80,0,0,0,0,0,0,0,0,0,0,18,0,58,0,0,35,0,0,0,74,0,0,0|
0,0,12,0,28,0,0,29,33,7,0,0,0,16,0,0,0,74,0,0,9,0,0,0,0,0,0,0,0,72,0,0,0,4,0,0,0,55,50,0,62,0,0,45,0,0,22,0,0,0,0,0,63,0,17,0,78,0,69,79,0,54,0,0,23,0,0,0,0,0,0,0,0,0,0,0,76,0,0,0,0|
7,0,56,0,0,0,11,0,0,0,68,0,45,0,43,0,0,12,5,53,0,0,42,0,0,0,0,0,0,33,0,0,0,0,0,15,32,0,0,0,0,0,0,60,0,0,0,0,0,0,0,0,0,29,22,0,19,0,0,0,0,30,0,49,0,69,78,0,0,0,0,0,0,0,0,0,48,0,0,0,0|
0,0,24,0,0,0,0,0,0,0,0,41,63,0,0,6,0,0,0,45,0,0,66,60,0,0,16,9,0,0,0,0,0,0,39,0,0,78,0,0,0,0,0,0,0,0,0,0,0,0,0,0,0,0,0,0,0,0,43,29,0,0,0,0,0,0,25,0,0,0,10,0,0,61,0,0,0,0,0,0,0|
0,0,0,41,0,0,0,0,0,0,0,0,0,0,50,0,0,0,0,0,0,0,0,0,55,0,0,0,35,70,0,0,0,0,0,79,0,0,0,0,0,0,27,0,0,1,0,0,0,0,0,0,0,0,0,0,0,0,0,0,0,0,0,0,0,0,0,45,0,0,0,0,0,0,0,0,0,0,0,59,0|
0,0,0,0,75,20,0,0,0,0,0,69,0,0,71,0,0,50,0,0,0,0,0,0,0,53,0,0,0,0,31,51,0,0,0,0,0,0,0,0,27,0,0,0,0,0,19,72,0,0,0,0,12,0,0,0,0,0,0,0,0,0,0,0,0,0,0,0,0,0,0,0,23,0,0,0,0,0,0,0,0|
0,0,0,7,0,71,0,0,11,0,0,39,43,0,0,0,0,76,0,0,0,0,0,0,0,0,0,63,0,54,0,0,0,0,0,0,0,0,59,0,0,0,0,0,0,0,0,0,0,0,0,0,62,0,37,0,0,55,0,31,56,0,0,0,0,0,0,0,1,0,0,0,81,0,0,0,0,60,45,27,0|
0,52,0,0,53,0,17,18,41,0,0,0,3,11,0,0,0,0,62,39,0,0,0,0,29,0,45,13,0,0,0,38,0,0,0,0,0,0,0,0,0,0,0,0,74,0,0,0,0,0,0,0,59,50,0,25,0,0,0,0,0,0,0,0,68,0,0,0,0,24,0,0,26,0,0,46,0,15,0,0,0|
0,0,0,0,0,0,0,0,0,31,0,0,0,0,0,0,20,0,0,0,0,0,0,0,0,0,0,0,37,14,0,0,0,47,0,0,3,11,0,0,0,5,0,50,0,0,0,0,0,0,43,0,0,0,0,0,0,0,0,0,0,0,0,0,0,52,0,0,0,0,79,0,0,0,0,58,0,0,0,0,0|
50,0,0,0,0,0,28,0,0,0,0,0,0,0,0,0,0,0,0,0,0,0,0,0,18,0,0,0,0,0,0,0,75,0,0,0,0,0,0,38,0,0,0,0,21,0,78,0,0,17,0,63,0,41,0,0,0,59,0,0,0,0,0,0,55,0,0,0,0,53,0,0,0,0,43,0,0,47,0,0,0|
0,0,0,0,0,0,0,0,0,0,0,0,0,0,0,0,0,0,0,0,67,5,0,0,19,0,0,0,32,0,0,0,0,0,0,66,0,9,0,0,0,0,34,0,0,0,0,0,0,0,0,0,0,8,0,0,0,45,0,0,0,0,40,0,0,20,0,0,58,0,0,0,0,0,0,0,44,0,55,3,0|
0,26,4,0,0,0,0,13,0,0,0,25,0,0,0,0,0,0,23,0,0,0,0,69,0,0,0,0,0,0,0,0,0,0,0,0,0,0,0,46,0,0,68,66,0,61,0,45,0,0,0,0,0,0,48,0,0,0,0,0,0,0,50,0,0,0,0,62,0,21,0,0,0,0,0,9,0,0,0,31,0|
0,0,0,0,0,0,0,0,0,0,0,0,0,0,0,81,0,0,51,70,0,0,0,0,59,0,0,0,56,0,49,0,0,0,0,0,0,0,0,0,0,0,0,15,0,0,0,0,2,0,0,0,0,0,0,0,0,0,0,0,58,0,0,0,0,0,0,0,0,0,0,33,0,0,0,0,0,0,66,0,0|
0,0,0,0,0,0,0,0,0,55,0,0,0,0,0,61,7,0,0,0,0,26,0,0,0,0,1,0,0,0,0,0,0,0,0,0,0,0,0,0,0,58,0,0,0,0,0,0,0,0,0,0,0,0,0,71,65,0,0,0,32,0,29,70,0,0,0,0,0,31,0,0,59,0,2,0,18,0,0,0,0|
0,0,0,0,0,0,5,0,0,0,0,0,0,0,0,0,0,0,10,0,0,0,0,0,50,68,0,0,0,0,0,48,0,35,33,0,0,51,0,70,0,0,2,0,0,0,0,0,0,0,0,0,0,0,0,0,0,0,61,0,0,0,0,0,0,0,74,0,56,0,0,0,42,0,0,0,0,0,0,0,0|
0,0,0,0,0,0,22,0,0,0,0,0,0,52,0,0,0,0,0,0,0,16,0,0,0,38,0,0,0,19,0,0,6,0,25,69,0,0,0,30,0,0,0,0,0,0,0,21,29,13,0,0,14,0,0,0,0,0,51,0,0,0,0,73,0,0,0,0,0,0,0,0,0,70,0,0,0,0,0,0,0|
0,0,50,10,0,0,0,11,0,0,75,0,0,0,0,0,0,0,0,0,0,0,81,72,0,0,0,0,0,74,0,0,0,65,0,0,0,0,0,0,0,0,0,0,0,0,0,0,0,58,0,0,0,0,0,0,13,0,0,0,0,0,0,0,0,61,0,0,0,0,0,8,54,20,0,0,79,39,0,0,0|
20,18,54,0,0,0,53,0,0,0,0,0,0,0,0,0,0,0,0,49,0,0,0,0,0,0,0,0,0,0,0,0,0,0,0,10,0,0,0,31,0,0,0,0,22,0,66,0,0,0,0,0,0,0,0,0,4,0,0,0,28,0,0,0,0,25,0,0,0,0,0,0,41,0,0,0,0,0,0,0,67|
0,0,0,0,23,73,0,0,0,0,0,0,0,0,0,0,13,0,0,0,0,0,0,0,0,0,59,0,0,0,0,47,63,61,0,0,12,0,0,0,0,0,0,0,0,36,0,0,0,0,45,0,0,0,0,0,0,0,70,33,80,0,0,0,0,0,0,0,37,0,0,0,6,29,0,0,43,0,0,0,0|
0,0,74,0,0,0,21,0,0,60,0,0,0,0,0,70,0,80,0,0,0,7,0,0,0,0,0,0,0,0,0,0,0,0,0,0,0,0,0,0,0,66,41,0,0,0,0,0,0,0,0,44,0,0,0,0,0,0,0,0,0,45,0,0,0,0,0,0,38,0,42,0,0,0,69,0,0,0,0,50,0|
69,0,0,0,0,0,0,0,0,0,0,0,0,32,0,63,0,58,56,0,8,0,0,0,0,24,0,0,0,7,0,0,0,0,0,0,0,52,0,0,0,0,0,0,0,80,35,0,50,0,0,0,0,0,0,0,0,0,0,0,0,0,0,0,0,0,2,0,0,0,0,0,0,0,0,0,0,0,0,0,0|
0,0,0,0,0,33,0,66,0,0,0,0,0,0,0,0,0,0,0,0,0,0,0,0,0,0,0,60,0,50,0,0,0,0,0,0,0,0,0,0,0,62,0,0,13,0,0,5,0,0,0,0,0,10,0,0,0,0,31,0,0,0,0,0,0,0,0,0,0,0,76,64,0,0,0,59,0,0,38,40,23|
0,0,0,0,0,0,0,0,0,0,0,0,0,0,0,0,0,0,0,0,0,0,0,0,0,0,0,0,0,0,0,0,0,31,0,42,0,0,0,0,0,59,0,0,0,0,0,77,0,0,0,0,0,0,0,0,0,0,0,0,0,0,63,0,0,0,0,0,0,0,5,0,0,0,0,0,21,33,0,9,0|
0,0,0,0,56,0,0,0,0,0,53,0,0,0,0,0,0,0,0,0,0,0,0,0,0,0,0,0,0,0,0,0,0,12,0,0,0,0,0,0,0,0,0,0,0,0,0,0,0,0,0,0,0,0,0,0,0,0,0,0,0,0,0,74,0,0,0,0,0,0,0,2,76,0,0,0,0,0,0,0,0|
0,0,49,0,0,0,43,0,0,48,0,0,0,0,0,0,0,79,0,0,0,0,0,0,0,0,44,0,0,0,64,0,0,0,0,56,0,0,0,0,0,3,0,0,38,0,0,0,0,0,52,0,0,0,0,0,0,0,0,0,12,0,0,0,0,0,0,0,0,0,37,0,57,0,0,15,0,0,0,0,17|
0,0,0,0,0,0,0,75,0,0,41,34,0,0,0,0,17,0,0,32,0,0,7,0,0,76,0,0,0,0,19,0,23,0,68,0,0,0,0,0,0,0,0,52,0,0,0,0,0,0,0,0,0,0,57,0,0,0,0,0,22,0,0,0,0,0,0,0,0,0,0,0,0,0,0,0,0,9,0,0,0|
0,74,0,0,38,14,0,7,12,80,1,9,0,0,0,50,63,0,0,0,0,0,0,0,6,0,0,0,0,65,0,0,8,0,0,0,0,0,0,0,28,0,0,0,0,0,0,0,75,0,0,0,0,0,0,0,46,0,13,0,0,0,31,0,0,0,0,0,0,0,0,0,0,10,0,0,0,5,0,0,0|
0,0,0,0,0,0,0,0,0,23,0,67,0,0,0,0,0,0,0,0,0,0,0,8,0,0,0,0,0,0,0,0,0,0,0,0,0,0,0,0,0,25,0,0,0,0,0,22,0,72,0,0,0,76,6,0,14,0,0,0,24,0,0,0,0,0,0,0,0,62,0,0,38,3,0,0,0,0,0,0,0|
0,0,0,0,0,0,0,41,77,0,25,40,0,74,0,0,14,0,38,69,34,0,52,26,1,0,0,0,0,75,0,24,0,0,0,0,78,0,2,0,0,0,0,0,0,0,4,0,0,0,0,0,0,0,0,0,0,0,0,0,0,0,0,0,31,0,0,39,55,0,0,0,37,0,0,0,35,0,0,0,0|
0,0,0,18,20,2,0,0,0,68,57,0,0,0,0,0,0,36,0,0,0,0,0,0,0,0,0,71,0,76,0,0,0,40,0,0,0,0,0,0,0,0,0,16,0,0,0,26,0,0,0,0,0,0,0,0,0,0,34,59,0,0,0,0,0,0,0,0,0,0,7,0,0,0,23,0,62,42,0,0,77|
0,0,0,0,0,0,0,0,0,0,0,0,0,0,28,55,71,0,0,0,0,0,0,56,0,0,14,0,0,0,0,0,26,0,0,0,11,58,0,0,0,0,0,0,0,73,0,0,0,0,31,0,0,0,45,42,0,66,0,0,0,0,0,0,0,18,0,0,29,0,0,0,0,0,70,72,0,0,0,0,0|
0,0,0,0,0,0,0,0,0,0,0,0,0,0,16,0,0,0,0,0,0,0,0,0,0,0,0,0,0,57,0,0,0,0,2,0,0,0,0,0,0,0,0,0,0,0,3,10,0,0,0,0,0,0,0,0,0,0,0,4,0,0,17,0,28,0,0,0,0,0,27,0,0,7,0,0,26,0,0,0,0|
0,0,0,0,0,0,0,0,0,62,0,0,0,0,0,0,0,0,0,0,0,0,33,0,0,0,0,74,0,0,0,0,0,0,0,0,0,0,0,0,0,0,0,32,0,0,0,0,0,0,0,10,2,0,0,0,0,0,0,0,45,67,0,0,0,0,0,0,0,49,0,35,0,80,0,0,0,0,53,0,0|
0,0,0,0,0,0,7,0,0,0,0,0,0,0,0,80,0,0,0,0,3,0,0,0,0,0,51,0,0,0,15,0,0,0,30,0,46,0,0,0,0,0,0,0,0,77,0,0,0,9,75,0,0,0,0,0,0,0,0,0,0,0,0,0,0,0,5,0,0,0,31,0,0,0,0,0,0,0,0,0,0|
0,0,13,0,0,0,0,58,55,0,0,27,0,0,0,0,0,4,0,0,78,0,0,0,0,0,0,0,0,0,0,0,0,0,0,0,0,21,0,0,0,0,1,81,26,0,73,0,0,0,0,0,0,0,0,0,40,14,0,5,0,0,0,25,0,15,0,0,72,0,0,0,0,0,0,0,0,0,54,65,0|
0,0,0,0,0,0,0,46,0,0,0,0,68,0,0,67,0,0,0,57,0,0,0,0,0,0,52,0,0,2,11,0,0,53,0,0,0,0,0,69,0,0,0,0,0,0,0,0,0,0,0,0,0,0,10,0,0,0,79,0,0,0,0,0,0,0,66,0,0,0,0,0,40,0,20,0,0,0,4,0,0|
0,33,0,59,0,0,0,0,0,0,5,0,0,0,0,0,0,0,0,0,15,0,0,0,0,69,0,0,0,0,46,0,0,54,0,0,0,0,0,0,0,0,52,0,0,0,0,30,0,0,0,0,0,0,0,77,0,0,18,2,0,31,0,0,58,0,0,0,0,0,11,0,0,0,6,21,71,0,0,0,56|
0,0,0,0,0,51,0,0,44,0,0,0,32,0,0,0,72,0,0,47,0,71,0,5,2,0,0,0,49,0,80,0,0,50,0,0,8,0,0,67,0,23,0,0,0,0,0,0,0,0,0,0,0,0,0,0,17,0,0,54,0,0,0,0,10,68,0,40,0,60,18,0,0,0,0,0,38,0,0,0,0|
0,0,0,0,0,0,0,0,0,0,0,0,0,0,0,0,0,0,0,0,0,0,0,0,0,0,10,65,0,0,0,0,79,0,0,0,0,0,0,0,0,0,74,0,0,0,0,63,0,38,0,0,0,0,0,0,0,0,0,0,0,0,0,0,0,0,0,6,52,0,55,0,0,0,47,0,0,0,0,0,49|
2,0,52,0,5,0,65,0,0,0,0,0,0,9,0,78,0,0,63,0,0,39,0,0,53,0,0,10,0,0,75,0,40,0,0,0,0,0,0,0,0,0,0,27,0,0,0,0,0,0,50,0,0,18,0,0,0,0,0,72,0,0,0,0,30,0,38,0,0,0,0,0,0,44,0,45,0,0,64,8,3|
6,42,0,0,0,0,0,0,64,0,0,0,0,36,79,0,0,0,0,0,0,34,0,0,0,0,0,0,0,0,0,16,3,0,0,0,37,0,0,51,66,0,25,0,0,0,0,0,45,0,0,0,0,0,0,0,0,0,0,0,0,0,0,0,0,0,0,0,0,26,13,0,0,14,0,0,0,0,0,0,0|
0,46,0,0,0,0,0,0,0,0,31,0,66,0,0,0,0,0,36,0,0,0,5,0,0,0,0,2,0,16,0,0,0,0,0,0,0,0,0,0,80,0,0,43,0,0,77,0,70,0,0,0,0,0,0,59,0,0,17,0,0,0,0,0,74,0,0,0,0,47,62,0,0,0,0,0,0,0,50,0,44|
0,0,0,0,0,63,0,0,0,6,0,74,0,0,0,0,0,0,54,58,0,0,79,0,0,0,0,0,0,0,0,0,0,0,0,0,0,75,0,0,17,0,0,0,0,69,0,59,0,0,80,0,0,0,0,45,0,0,0,16,0,57,0,0,0,0,0,21,0,0,0,0,0,0,0,0,0,0,12,0,0|
0,0,0,0,70,0,77,0,0,3,0,0,0,0,0,0,61,0,0,0,0,0,0,74,0,0,0,0,0,0,0,0,0,0,1,75,56,57,0,0,0,0,0,26,0,0,0,0,0,0,0,51,67,0,34,0,0,71,0,0,0,0,0,0,0,0,0,0,0,0,0,79,0,0,64,35,0,0,0,0,0|
0,0,0,0,0,0,13,0,50,0,0,0,0,2,59,0,0,0,0,20,0,0,4,23,0,6,0,0,0,55,0,0,0,0,0,0,79,0,0,10,0,0,0,0,0,0,0,0,0,0,0,1,37,0,0,14,0,0,0,0,11,0,36,0,0,0,49,0,0,0,0,0,0,0,78,0,0,0,0,0,0|
0,0,0,0,0,0,0,0,0,65,0,55,36,0,0,0,0,0,0,0,76,0,0,0,35,0,0,18,0,0,0,0,4,0,0,0,0,0,0,0,0,0,0,0,0,0,54,6,0,0,0,0,0,0,0,0,61,0,0,0,0,0,0,31,0,0,69,0,16,0,0,0,0,0,45,0,0,0,0,29,51|
0,0,0,4,18,0,0,0,0,0,0,0,0,0,24,40,0,0,17,0,0,0,0,0,0,0,0,27,0,0,38,80,0,0,0,0,0,0,45,32,0,0,39,0,0,0,0,0,0,0,0,0,0,0,0,58,0,0,2,0,0,0,0,0,41,0,0,0,23,0,0,0,48,0,62,0,36,0,77,46,0|
0,0,42,57,80,0,0,0,0,0,0,0,0,0,70,0,0,0,0,0,0,0,0,0,26,0,0,0,0,0,0,0,0,0,0,0,0,0,0,0,0,0,0,0,34,0,0,78,0,0,0,0,0,0,0,0,0,64,0,0,0,8,0,58,4,0,0,0,0,0,29,0,0,0,0,0,0,0,0,0,19|
0,0,0,0,79,0,0,20,67,0,0,64,0,0,58,52,0,0,0,71,0,0,0,0,34,0,0,0,0,0,0,61,0,0,0,47,0,0,40,66,0,0,44,72,0,0,0,0,0,0,0,0,0,0,0,0,0,0,0,0,0,49,0,0,0,0,0,0,0,0,0,14,0,0,0,0,0,0,6,0,0|
0,0,0,47,0,0,0,0,0,0,0,0,0,13,0,0,0,0,72,0,0,2,0,0,0,57,0,0,52,0,0,0,0,79,0,0,36,0,37,0,0,0,0,0,0,0,75,0,0,29,0,0,0,0,3,0,0,0,0,0,0,0,0,0,0,0,0,0,80,0,0,0,0,0,0,24,0,0,0,49,7|
0,0,0,0,0,0,0,56,0,0,0,0,0,0,0,0,0,0,0,0,0,0,0,0,21,79,0,77,0,0,47,0,0,0,0,54,19,0,0,0,0,0,0,0,0,0,0,0,0,0,0,0,0,0,0,0,29,46,0,0,72,0,0,0,43,0,0,0,0,0,0,0,0,0,0,0,0,0,7,0,0|
68,0,39,49,0,0,0,0,52,79,0,0,0,0,0,0,0,0,0,0,0,0,0,0,0,22,75,0,0,0,0,0,13,0,0,0,0,0,0,56,0,0,0,0,0,0,0,0,21,0,0,40,0,4,0,0,0,0,0,0,0,0,0,0,60,0,0,12,45,0,0,0,0,0,0,0,0,0,0,0,0|
0,0,55,0,0,42,0,69,0,9,0,0,0,0,0,0,0,0,0,38,0,0,0,52,0,0,0,0,0,0,0,0,74,0,11,0,0,0,0,0,0,72,0,0,0,0,0,0,0,76,0,26,0,0,0,0,39,0,0,0,27,0,0,0,0,0,0,0,0,0,0,0,0,0,0,0,70,0,43,0,0|
0,0,0,0,0,0,18,0,0,0,0,0,0,0,0,0,0,0,0,0,0,73,0,0,0,26,0,17,0,0,0,0,52,0,0,31,0,0,0,0,0,43,67,0,45,0,0,0,0,0,0,0,66,9,0,0,0,0,0,0,0,0,0,0,0,0,0,0,0,63,0,46,68,12,0,79,0,0,0,0,0|
0,0,0,0,0,0,0,22,0,0,0,0,0,0,0,0,0,0,0,0,0,0,0,39,0,0,0,21,0,0,0,53,78,0,0,0,0,0,0,63,4,14,0,0,0,0,0,0,0,0,0,0,0,37,0,0,0,31,0,24,0,0,0,0,0,0,62,0,0,0,0,0,11,0,0,0,0,0,0,0,0|
0,0,0,0,4,17,0,34,72,0,0,0,0,45,0,0,0,0,0,65,0,11,14,0,0,36,0,0,0,42,0,0,0,0,0,0,22,0,47,9,0,0,0,0,0,55,0,43,0,2,0,5,0,0,0,0,0,0,0,73,0,0,0,0,0,0,0,0,0,0,0,69,15,0,0,0,0,0,57,0,0|
0,0,0,0,0,0,0,0,0,0,0,0,0,0,0,0,0,0,25,12,0,48,57,0,0,1,0,0,0,0,0,0,0,0,0,0,34,38,41,40,0,0,0,0,0,0,8,0,0,0,0,23,0,32,0,0,79,0,0,0,77,0,5,0,3,0,0,52,0,0,20,0,0,24,18,0,0,0,0,0,0|
0,0,0,0,0,0,74,0,14,0,0,0,0,68,0,0,0,0,69,0,40,0,28,46,0,0,0,80,0,26,0,63,0,0,24,0,20,32,0,53,0,0,0,0,0,0,0,29,0,0,0,0,0,30,0,6,0,0,0,0,0,0,0,0,0,0,0,0,77,0,0,0,0,0,75,0,0,0,8,0,0|
54,0,0,5,35,0,0,0,0,0,0,80,11,0,0,16,0,0,0,0,0,62,58,0,49,15,0,0,12,6,0,41,0,14,0,0,24,0,0,0,0,55,0,33,0,0,46,0,0,0,0,42,0,0,0,0,0,48,0,47,0,0,37,51,0,0,50,0,28,0,0,0,0,0,56,77,22,38,73,0,0|
0,0,0,0,0,0,0,68,0,0,0,0,0,0,0,0,0,35,3,0,0,0,0,2,37,0,0,55,0,79,0,0,39,0,48,0,0,0,0,0,0,0,0,0,0,0,0,0,0,0,40,0,0,0,47,0,49,0,0,0,0,0,0,0,0,0,0,0,0,52,59,0,0,0,29,53,78,0,0,0,0|
0,0,0,21,0,0,66,0,0,0,26,0,46,0,0,0,0,0,0,8,0,0,0,0,45,0,0,0,27,0,0,0,0,75,0,0,0,0,0,37,0,0,0,0,0,0,0,0,0,63,0,0,29,0,40,0,0,0,0,0,0,0,60,15,0,0,0,0,0,0,0,0,0,0,0,0,0,0,22,24,0|
0,0,0,31,0,0,0,0,0,5,0,45,33,0,0,0,0,0,39,0,10,0,0,0,0,0,0,0,0,0,0,52,0,0,0,0,0,0,17,0,0,0,0,0,0,0,0,0,0,0,0,0,0,0,0,72,0,0,0,3,48,0,0,0,0,0,13,0,0,0,53,40,35,0,21,73,0,0,0,0,0|
0,0,0,0,0,0,0,0,0,8,13,0,0,0,0,0,0,37,40,0,0,12,0,47,0,67,0,76,0,0,14,33,0,0,0,0,0,53,0,75,0,0,0,0,52,0,0,0,0,0,0,0,0,0,0,0,0,0,0,38,0,0,0,0,0,0,0,0,0,16,0,0,0,2,0,0,0,0,0,60,0|
43,25,0,0,0,5,63,45,0,0,78,0,0,0,0,29,0,0,0,0,0,0,72,33,0,0,0,23,0,0,4,0,0,0,0,0,0,66,0,0,0,0,0,0,0,0,0,0,0,0,0,0,0,0,0,44,0,0,21,0,0,0,35,0,0,55,11,0,81,73,0,0,80,0,30,0,0,76,52,28,0|
0,0,0,0,0,0,0,57,0,0,0,59,0,0,0,0,18,0,0,7,29,0,9,0,11,54,0,3,0,0,70,0,0,0,0,12,0,0,16,0,35,0,0,0,0,0,72,0,0,0,0,0,0,0,0,0,0,77,0,52,41,0,66,0,0,0,0,8,0,0,0,0,0,6,67,44,0,56,0,0,0|
52,50,0,0,0,0,0,0,0,0,0,0,56,0,0,0,0,0,0,0,0,30,0,0,0,0,0,0,0,0,10,0,0,0,0,0,76,0,54,0,0,0,0,0,71,0,0,24,0,57,0,0,0,0,0,0,0,0,0,0,2,0,0,0,0,0,0,0,0,0,0,0,36,0,0,0,0,0,0,0,0|
53,0,17,0,0,0,0,77,0,0,40,0,0,43,0,11,0,24,13,0,35,0,80,0,75,0,0,0,0,25,0,0,0,0,0,0,0,56,0,0,0,0,0,0,0,0,0,73,52,0,0,48,0,0,65,0,0,0,39,0,0,0,0,0,0,0,0,0,7,0,0,0,0,0,31,0,0,0,0,0,81|
0,0,0,0,0,0,0,0,0,0,61,0,0,0,0,72,0,0,20,0,6,0,0,0,0,41,0,0,0,0,0,0,0,30,0,35,0,0,0,0,0,0,0,7,0,38,5,0,0,0,0,0,51,0,0,0,0,0,0,0,79,0,0,0,0,23,0,0,0,77,0,0,0,0,0,0,39,0,0,0,10|
0,0,2,0,0,41,0,0,0,0,0,0,0,0,60,0,0,72,26,0,0,0,0,0,0,0,0,48,40,0,0,34,14,0,0,0,0,20,0,0,36,0,59,0,0,0,0,0,0,0,0,0,73,0,0,0,0,0,0,0,4,0,0,5,62,0,3,0,0,0,0,0,0,0,0,0,0,0,0,0,0|
0,0,7,0,17,0,0,0,0,0,0,0,0,56,0,0,48,78,0,0,0,24,0,0,0,0,0,0,43,0,0,0,0,0,0,0,0,0,0,2,0,69,0,0,73,0,0,28,0,79,0,0,72,0,14,0,0,0,0,0,0,77,0,0,61,0,0,0,11,0,0,4,0,0,0,0,0,0,0,0,0|
0,29,0,78,0,0,0,0,0,0,0,0,0,0,0,0,0,0,0,0,38,0,0,0,0,0,0,0,0,0,77,0,0,0,0,0,0,0,0,0,6,56,26,0,0,0,0,0,0,0,0,0,1,0,0,0,0,23,48,0,0,2,0,0,0,0,0,0,0,0,0,0,0,0,0,0,0,0,0,0,0|
0,0,0,0,0,0,0,52,0,0,0,0,0,53,0,25,0,0,0,0,0,0,34,0,0,0,78,0,0,0,0,0,0,0,0,76,0,0,0,0,0,0,0,0,62,0,68,0,0,0,0,0,0,0,0,31,0,0,0,17,0,0,0,0,0,0,0,0,0,1,0,0,47,0,0,49,24,0,0,0,15|
64,0,0,0,0,0,20,5,53,0,0,0,71,28,0,0,0,0,0,0,0,0,59,0,0,0,0,0,45,0,0,19,55,0,0,0,18,0,0,0,0,0,31,48,0,0,0,0,0,0,0,0,0,0,60,0,0,0,0,0,0,0,0,0,0,46,0,0,0,75,0,0,0,0,0,0,0,0,0,0,0|
0,0,0,0,0,0,0,0,0,46,0,0,0,0,54,34,0,0,0,0,0,0,0,0,74,0,0,0,0,0,63,0,0,0,0,52,0,0,0,76,0,0,0,0,0,0,0,0,0,0,0,0,0,0,0,0,0,0,28,0,0,47,0,0,0,0,0,0,0,0,0,0,0,27,0,0,0,0,0,25,0|
0,80,0,0,0,3,0,43,0,0,0,0,75,31,0,0,0,0,6,0,0,0,0,0,40,37,0,0,0,0,0,0,0,0,0,0,0,64,0,0,0,0,12,70,0,0,0,0,69,0,54,33,25,0,26,0,0,0,0,0,0,0,0,0,0,0,0,14,32,0,0,0,21,0,53,5,0,0,0,0,0|
37,0,0,0,0,0,0,16,0,0,0,0,17,0,0,3,0,0,27,0,0,36,0,0,0,0,0,0,0,0,0,0,0,0,0,53,0,0,0,0,0,74,0,0,0,0,0,0,41,0,0,0,0,0,0,0,0,20,40,0,0,0,0,0,18,0,0,0,24,8,0,0,0,0,0,0,0,0,0,0,0|
0,66,0,0,0,0,0,0,0,0,0,0,0,0,11,0,0,0,0,0,71,0,0,21,0,0,0,5,31,0,0,6,0,0,0,7,23,0,0,0,0,17,0,0,0,0,53,0,0,0,0,0,0,0,0,0,0,0,0,0,0,22,0,2,0,0,0,0,78,0,0,0,0,0,51,0,0,0,0,14,0|];